set Targyak := DTR IRB KXD IRU VIR TOK;

param :
            vizsganap   szukseges_ora :=
    DTR     4           20  
    IRB     7           15
    KXD     10          25
    IRU     8           15
    VIR     6           5
    TOK     9           7
    ;


param utolso_nap := 10;

param szabadido:=
    1   20
    2   10
    3   0
    4   9
    5   6
    6   4
    7   8
    8   10
    9   15
    10  4
    ;
